(set-info :source |
 Generated by Alive 0.1
 More info in N. P. Lopes, D. Menendez, S. Nagarakatte, J. Regehr.
 Provably Correct Peephole Optimizations with Alive. In PLDI'15.
|)

(set-info :status unknown)
(declare-fun %Y () (_ BitVec 56))
(declare-fun %X () (_ BitVec 56))
(declare-fun u_%Op1 () (_ BitVec 8))
(assert
 (let (($x126289 (and (distinct (bvsub (_ bv0 56) (bvshl (bvsub (_ bv0 56) %X) %Y)) (bvshl %X %Y)) true)))
 (let (($x86223 (= u_%Op1 (_ bv1 8))))
 (let (($x124984 (bvult %Y (_ bv56 56))))
 (and $x124984 $x124984 $x86223 $x126289)))))
(check-sat)
